32	0

0	3	2	3	5
5	3	4	7	9
2	3	4	7	9
4	2	6	8
7	3	6	8	9
4	4	10	11	12	13
6	4	10	11	12	13
4	4	10	11	12	13
8	1	12
5	2	14	15
8	1	15
1	2	14	15
7	2	14	15
10	2	16	18
6	2	16	18
1	1	17
2	2	19	20
2	2	19	20
6	1	21
2	1	21
8	1	22
4	2	23	24
7	2	25	26
10	3	27	28	29
3	3	27	28	29
10	2	27	29
8	1	30
9	1	30
9	1	30
2	1	31
2	1	32
0	0
